benchmarks_vrp/CMT11/fixed_c/CMT11_7.vrp
NAME: CMT11_7
TYPE: CVRP
COMMENT: 1042.11 - Cluster Nr.7
DIMENSION: 13
CAPACITY: 200
EDGE_WEIGHT_TYPE: EUC_2D
NODE_COORD_TYPE: TWOD_COORDS
NODE_COORD_SECTION: 
5 10 35
11 13 40
10 15 36
9 10 40
13 5 40
2 18 40
7 16 45
8 18 41
4 16 38
12 15 42
1 14 40
6 11 42
3 10 45
DEPOT_SECTION: 
3
-1
DEMAND_SECTION: 
12 21
7 9
13 20
3 0
2 15
10 8
6 4
5 7
9 12
4 8
1 11
8 16
11 7
EOF
