benchmarks_vrp/CMT11/fixed_c/CMT11_7.tour
NAME: CMT11_7 solution
TYPE: TOUR
TOUR_SECTION:
3 6 9 11 1 12 7 8 2 4 10 5 13 -1
-1
EOF